p cnf 300 800
1 2 -3 0
1 -2 3 0
-1 2 3 0
-1 -2 -3 0
4 5 -6 0
4 -5 6 0
-4 5 6 0
-4 -5 -6 0
7 8 -9 0
7 -8 9 0
-7 8 9 0
-7 -8 -9 0
4 10 -11 0
4 -10 11 0
-4 10 11 0
-4 -10 -11 0
12 13 -14 0
12 -13 14 0
-12 13 14 0
-12 -13 -14 0
15 16 -17 0
15 -16 17 0
-15 16 17 0
-15 -16 -17 0
18 19 20 0
18 -19 -20 0
-18 19 -20 0
-18 -19 20 0
21 22 -23 0
21 -22 23 0
-21 22 23 0
-21 -22 -23 0
24 25 26 0
24 -25 -26 0
-24 25 -26 0
-24 -25 26 0
18 27 28 0
18 -27 -28 0
-18 27 -28 0
-18 -27 28 0
5 29 -30 0
5 -29 30 0
-5 29 30 0
-5 -29 -30 0
24 31 -32 0
24 -31 32 0
-24 31 32 0
-24 -31 -32 0
33 34 35 0
33 -34 -35 0
-33 34 -35 0
-33 -34 35 0
36 37 38 0
36 -37 -38 0
-36 37 -38 0
-36 -37 38 0
39 40 -41 0
39 -40 41 0
-39 40 41 0
-39 -40 -41 0
42 43 44 0
42 -43 -44 0
-42 43 -44 0
-42 -43 44 0
45 46 -47 0
45 -46 47 0
-45 46 47 0
-45 -46 -47 0
25 33 -48 0
25 -33 48 0
-25 33 48 0
-25 -33 -48 0
49 50 -51 0
49 -50 51 0
-49 50 51 0
-49 -50 -51 0
36 52 53 0
36 -52 -53 0
-36 52 -53 0
-36 -52 53 0
54 55 -56 0
54 -55 56 0
-54 55 56 0
-54 -55 -56 0
57 58 59 0
57 -58 -59 0
-57 58 -59 0
-57 -58 59 0
60 61 62 0
60 -61 -62 0
-60 61 -62 0
-60 -61 62 0
12 54 63 0
12 -54 -63 0
-12 54 -63 0
-12 -54 63 0
64 65 66 0
64 -65 -66 0
-64 65 -66 0
-64 -65 66 0
67 68 69 0
67 -68 -69 0
-67 68 -69 0
-67 -68 69 0
70 71 -72 0
70 -71 72 0
-70 71 72 0
-70 -71 -72 0
73 74 -75 0
73 -74 75 0
-73 74 75 0
-73 -74 -75 0
76 77 78 0
76 -77 -78 0
-76 77 -78 0
-76 -77 78 0
49 79 80 0
49 -79 -80 0
-49 79 -80 0
-49 -79 80 0
81 82 -83 0
81 -82 83 0
-81 82 83 0
-81 -82 -83 0
45 84 85 0
45 -84 -85 0
-45 84 -85 0
-45 -84 85 0
86 87 -88 0
86 -87 88 0
-86 87 88 0
-86 -87 -88 0
89 90 91 0
89 -90 -91 0
-89 90 -91 0
-89 -90 91 0
64 92 93 0
64 -92 -93 0
-64 92 -93 0
-64 -92 93 0
10 94 -95 0
10 -94 95 0
-10 94 95 0
-10 -94 -95 0
6 60 96 0
6 -60 -96 0
-6 60 -96 0
-6 -60 96 0
97 98 -99 0
97 -98 99 0
-97 98 99 0
-97 -98 -99 0
100 101 102 0
100 -101 -102 0
-100 101 -102 0
-100 -101 102 0
81 103 104 0
81 -103 -104 0
-81 103 -104 0
-81 -103 104 0
105 106 107 0
105 -106 -107 0
-105 106 -107 0
-105 -106 107 0
108 109 -110 0
108 -109 110 0
-108 109 110 0
-108 -109 -110 0
61 111 112 0
61 -111 -112 0
-61 111 -112 0
-61 -111 112 0
113 114 -115 0
113 -114 115 0
-113 114 115 0
-113 -114 -115 0
7 15 116 0
7 -15 -116 0
-7 15 -116 0
-7 -15 116 0
21 46 -117 0
21 -46 117 0
-21 46 117 0
-21 -46 -117 0
16 118 -119 0
16 -118 119 0
-16 118 119 0
-16 -118 -119 0
120 121 122 0
120 -121 -122 0
-120 121 -122 0
-120 -121 122 0
123 124 125 0
123 -124 -125 0
-123 124 -125 0
-123 -124 125 0
108 126 127 0
108 -126 -127 0
-108 126 -127 0
-108 -126 127 0
19 65 128 0
19 -65 -128 0
-19 65 -128 0
-19 -65 128 0
70 92 -129 0
70 -92 129 0
-70 92 129 0
-70 -92 -129 0
111 130 131 0
111 -130 -131 0
-111 130 -131 0
-111 -130 131 0
113 132 -133 0
113 -132 133 0
-113 132 133 0
-113 -132 -133 0
134 135 -136 0
134 -135 136 0
-134 135 136 0
-134 -135 -136 0
137 138 139 0
137 -138 -139 0
-137 138 -139 0
-137 -138 139 0
140 141 -142 0
140 -141 142 0
-140 141 142 0
-140 -141 -142 0
27 143 144 0
27 -143 -144 0
-27 143 -144 0
-27 -143 144 0
50 145 -146 0
50 -145 146 0
-50 145 146 0
-50 -145 -146 0
147 148 -149 0
147 -148 149 0
-147 148 149 0
-147 -148 -149 0
105 150 -151 0
105 -150 151 0
-105 150 151 0
-105 -150 -151 0
152 153 -154 0
152 -153 154 0
-152 153 154 0
-152 -153 -154 0
8 57 -130 0
8 -57 130 0
-8 57 130 0
-8 -57 -130 0
155 156 -157 0
155 -156 157 0
-155 156 157 0
-155 -156 -157 0
158 159 160 0
158 -159 -160 0
-158 159 -160 0
-158 -159 160 0
100 161 162 0
100 -161 -162 0
-100 161 -162 0
-100 -161 162 0
106 137 -163 0
106 -137 163 0
-106 137 163 0
-106 -137 -163 0
34 129 -164 0
34 -129 164 0
-34 129 164 0
-34 -129 -164 0
165 166 -167 0
165 -166 167 0
-165 166 167 0
-165 -166 -167 0
22 168 169 0
22 -168 -169 0
-22 168 -169 0
-22 -168 169 0
1 170 -171 0
1 -170 171 0
-1 170 171 0
-1 -170 -171 0
120 172 173 0
120 -172 -173 0
-120 172 -173 0
-120 -172 173 0
174 175 -176 0
174 -175 176 0
-174 175 176 0
-174 -175 -176 0
31 107 -177 0
31 -107 177 0
-31 107 177 0
-31 -107 -177 0
47 116 -178 0
47 -116 178 0
-47 116 178 0
-47 -116 -178 0
32 67 179 0
32 -67 -179 0
-32 67 -179 0
-32 -67 179 0
180 181 182 0
180 -181 -182 0
-180 181 -182 0
-180 -181 182 0
183 184 -185 0
183 -184 185 0
-183 184 185 0
-183 -184 -185 0
123 186 -187 0
123 -186 187 0
-123 186 187 0
-123 -186 -187 0
143 188 -189 0
143 -188 189 0
-143 188 189 0
-143 -188 -189 0
140 179 190 0
140 -179 -190 0
-140 179 -190 0
-140 -179 190 0
191 192 -193 0
191 -192 193 0
-191 192 193 0
-191 -192 -193 0
194 195 196 0
194 -195 -196 0
-194 195 -196 0
-194 -195 196 0
73 86 197 0
73 -86 -197 0
-73 86 -197 0
-73 -86 197 0
2 82 198 0
2 -82 -198 0
-2 82 -198 0
-2 -82 198 0
97 199 -200 0
97 -199 200 0
-97 199 200 0
-97 -199 -200 0
121 201 -202 0
121 -201 202 0
-121 201 202 0
-121 -201 -202 0
118 201 203 0
118 -201 -203 0
-118 201 -203 0
-118 -201 203 0
152 204 205 0
152 -204 -205 0
-152 204 -205 0
-152 -204 205 0
13 206 -207 0
13 -206 207 0
-13 206 207 0
-13 -206 -207 0
71 208 -209 0
71 -208 209 0
-71 208 209 0
-71 -208 -209 0
112 117 158 0
112 -117 -158 0
-112 117 -158 0
-112 -117 158 0
183 210 211 0
183 -210 -211 0
-183 210 -211 0
-183 -210 211 0
170 212 213 0
170 -212 -213 0
-170 212 -213 0
-170 -212 213 0
103 214 215 0
103 -214 -215 0
-103 214 -215 0
-103 -214 215 0
164 180 -216 0
164 -180 216 0
-164 180 216 0
-164 -180 -216 0
55 197 217 0
55 -197 -217 0
-55 197 -217 0
-55 -197 217 0
37 109 -191 0
37 -109 191 0
-37 109 191 0
-37 -109 -191 0
20 218 219 0
20 -218 -219 0
-20 218 -219 0
-20 -218 219 0
110 177 -220 0
110 -177 220 0
-110 177 220 0
-110 -177 -220 0
221 222 223 0
221 -222 -223 0
-221 222 -223 0
-221 -222 223 0
145 188 -224 0
145 -188 224 0
-145 188 224 0
-145 -188 -224 0
17 39 225 0
17 -39 -225 0
-17 39 -225 0
-17 -39 225 0
93 226 -227 0
93 -226 227 0
-93 226 227 0
-93 -226 -227 0
165 228 -229 0
165 -228 229 0
-165 228 229 0
-165 -228 -229 0
230 231 -232 0
230 -231 232 0
-230 231 232 0
-230 -231 -232 0
150 161 194 0
150 -161 -194 0
-150 161 -194 0
-150 -161 194 0
29 233 -234 0
29 -233 234 0
-29 233 234 0
-29 -233 -234 0
235 236 237 0
235 -236 -237 0
-235 236 -237 0
-235 -236 237 0
238 239 -240 0
238 -239 240 0
-238 239 240 0
-238 -239 -240 0
147 221 -241 0
147 -221 241 0
-147 221 241 0
-147 -221 -241 0
198 226 -242 0
198 -226 242 0
-198 226 242 0
-198 -226 -242 0
84 96 -243 0
84 -96 243 0
-84 96 243 0
-84 -96 -243 0
155 244 245 0
155 -244 -245 0
-155 244 -245 0
-155 -244 245 0
238 246 -247 0
238 -246 247 0
-238 246 247 0
-238 -246 -247 0
52 212 248 0
52 -212 -248 0
-52 212 -248 0
-52 -212 248 0
216 244 -249 0
216 -244 249 0
-216 244 249 0
-216 -244 -249 0
94 192 250 0
94 -192 -250 0
-94 192 -250 0
-94 -192 250 0
153 250 -251 0
153 -250 251 0
-153 250 251 0
-153 -250 -251 0
178 252 253 0
178 -252 -253 0
-178 252 -253 0
-178 -252 253 0
148 235 254 0
148 -235 -254 0
-148 235 -254 0
-148 -235 254 0
3 159 252 0
3 -159 -252 0
-3 159 -252 0
-3 -159 252 0
74 124 255 0
74 -124 -255 0
-74 124 -255 0
-74 -124 255 0
35 98 203 0
35 -98 -203 0
-35 98 -203 0
-35 -98 203 0
251 256 -257 0
251 -256 257 0
-251 256 257 0
-251 -256 -257 0
156 186 258 0
156 -186 -258 0
-156 186 -258 0
-156 -186 258 0
99 126 -259 0
99 -126 259 0
-99 126 259 0
-99 -126 -259 0
127 168 241 0
127 -168 -241 0
-127 168 -241 0
-127 -168 241 0
174 260 -261 0
174 -260 261 0
-174 260 261 0
-174 -260 -261 0
128 204 259 0
128 -204 -259 0
-128 204 -259 0
-128 -204 259 0
72 85 -262 0
72 -85 262 0
-72 85 262 0
-72 -85 -262 0
181 206 -263 0
181 -206 263 0
-181 206 263 0
-181 -206 -263 0
208 264 -265 0
208 -264 265 0
-208 264 265 0
-208 -264 -265 0
75 172 246 0
75 -172 -246 0
-75 172 -246 0
-75 -172 246 0
190 225 266 0
190 -225 -266 0
-190 225 -266 0
-190 -225 266 0
79 230 267 0
79 -230 -267 0
-79 230 -267 0
-79 -230 267 0
76 268 -269 0
76 -268 269 0
-76 268 269 0
-76 -268 -269 0
132 270 271 0
132 -270 -271 0
-132 270 -271 0
-132 -270 271 0
184 272 -273 0
184 -272 273 0
-184 272 273 0
-184 -272 -273 0
95 101 -274 0
95 -101 274 0
-95 101 274 0
-95 -101 -274 0
125 224 -260 0
125 -224 260 0
-125 224 260 0
-125 -224 -260 0
175 210 -275 0
175 -210 275 0
-175 210 275 0
-175 -210 -275 0
146 276 277 0
146 -276 -277 0
-146 276 -277 0
-146 -276 277 0
171 247 -278 0
171 -247 278 0
-171 247 278 0
-171 -247 -278 0
30 141 -222 0
30 -141 222 0
-30 141 222 0
-30 -141 -222 0
68 270 -279 0
68 -270 279 0
-68 270 279 0
-68 -270 -279 0
80 245 280 0
80 -245 -280 0
-80 245 -280 0
-80 -245 280 0
199 214 -281 0
199 -214 281 0
-199 214 281 0
-199 -214 -281 0
218 220 -282 0
218 -220 282 0
-218 220 282 0
-218 -220 -282 0
138 163 239 0
138 -163 -239 0
-138 163 -239 0
-138 -163 239 0
173 236 283 0
173 -236 -283 0
-173 236 -283 0
-173 -236 283 0
38 228 -284 0
38 -228 284 0
-38 228 284 0
-38 -228 -284 0
207 249 -266 0
207 -249 266 0
-207 249 266 0
-207 -249 -266 0
205 282 285 0
205 -282 -285 0
-205 282 -285 0
-205 -282 285 0
134 231 -283 0
134 -231 283 0
-134 231 283 0
-134 -231 -283 0
58 83 149 0
58 -83 -149 0
-58 83 -149 0
-58 -83 149 0
59 213 256 0
59 -213 -256 0
-59 213 -256 0
-59 -213 256 0
42 151 154 0
42 -151 -154 0
-42 151 -154 0
-42 -151 154 0
139 243 254 0
139 -243 -254 0
-139 243 -254 0
-139 -243 254 0
23 69 -142 0
23 -69 142 0
-23 69 142 0
-23 -69 -142 0
135 169 -286 0
135 -169 286 0
-135 169 286 0
-135 -169 -286 0
262 276 287 0
262 -276 -287 0
-262 276 -287 0
-262 -276 287 0
160 278 288 0
160 -278 -288 0
-160 278 -288 0
-160 -278 288 0
77 217 -237 0
77 -217 237 0
-77 217 237 0
-77 -217 -237 0
285 289 290 0
285 -289 -290 0
-285 289 -290 0
-285 -289 290 0
78 187 291 0
78 -187 -291 0
-78 187 -291 0
-78 -187 291 0
11 200 -292 0
11 -200 292 0
-11 200 292 0
-11 -200 -292 0
51 248 -293 0
51 -248 293 0
-51 248 293 0
-51 -248 -293 0
114 294 295 0
114 -294 -295 0
-114 294 -295 0
-114 -294 295 0
43 255 261 0
43 -255 -261 0
-43 255 -261 0
-43 -255 261 0
286 296 -297 0
286 -296 297 0
-286 296 297 0
-286 -296 -297 0
209 293 298 0
209 -293 -298 0
-209 293 -298 0
-209 -293 298 0
87 189 -240 0
87 -189 240 0
-87 189 240 0
-87 -189 -240 0
202 274 -275 0
202 -274 275 0
-202 274 275 0
-202 -274 -275 0
144 182 -287 0
144 -182 287 0
-144 182 287 0
-144 -182 -287 0
9 263 296 0
9 -263 -296 0
-9 263 -296 0
-9 -263 296 0
89 272 299 0
89 -272 -299 0
-89 272 -299 0
-89 -272 299 0
63 166 271 0
63 -166 -271 0
-63 166 -271 0
-63 -166 271 0
28 268 279 0
28 -268 -279 0
-28 268 -279 0
-28 -268 279 0
40 215 284 0
40 -215 -284 0
-40 215 -284 0
-40 -215 284 0
119 242 264 0
119 -242 -264 0
-119 242 -264 0
-119 -242 264 0
44 48 56 0
44 -48 -56 0
-44 48 -56 0
-44 -48 56 0
66 269 -300 0
66 -269 300 0
-66 269 300 0
-66 -269 -300 0
53 273 -277 0
53 -273 277 0
-53 273 277 0
-53 -273 -277 0
157 167 219 0
157 -167 -219 0
-157 167 -219 0
-157 -167 219 0
288 291 292 0
288 -291 -292 0
-288 291 -292 0
-288 -291 292 0
41 280 294 0
41 -280 -294 0
-41 280 -294 0
-41 -280 294 0
227 232 297 0
227 -232 -297 0
-227 232 -297 0
-227 -232 297 0
162 211 -298 0
162 -211 298 0
-162 211 298 0
-162 -211 -298 0
14 88 -289 0
14 -88 289 0
-14 88 289 0
-14 -88 -289 0
62 233 299 0
62 -233 -299 0
-62 233 -299 0
-62 -233 299 0
176 229 -234 0
176 -229 234 0
-176 229 234 0
-176 -229 -234 0
195 265 267 0
195 -265 -267 0
-195 265 -267 0
-195 -265 267 0
90 185 290 0
90 -185 -290 0
-90 185 -290 0
-90 -185 290 0
102 104 136 0
102 -104 -136 0
-102 104 -136 0
-102 -104 136 0
26 193 196 0
26 -193 -196 0
-26 193 -196 0
-26 -193 196 0
91 295 300 0
91 -295 -300 0
-91 295 -300 0
-91 -295 300 0
122 131 281 0
122 -131 -281 0
-122 131 -281 0
-122 -131 281 0
223 253 258 0
223 -253 -258 0
-223 253 -258 0
-223 -253 258 0
115 133 257 0
115 -133 -257 0
-115 133 -257 0
-115 -133 257 0
